Instance: Data/Instances_txt/inst_200_10_1.txt
SetUpTime: 153.81235885620117

Gurobi 10.0.1 (mac64[x86]) logging started Mo 14 Aug 10:36:20 2023

Set parameter LogFile to value "Output/MILP_RELAXED_inst_200_10_1_2023-08-14_09-45-28.txt"

Gurobi 10.0.1 (mac64[x86]) logging started Mo 14 Aug 10:36:20 2023

Set parameter LogFile to value "Output/MILP_RELAXED_inst_200_10_1_2023-08-14_09-45-28.txt"
Gurobi Optimizer version 10.0.1 build v10.0.1rc0 (mac64[x86])

CPU model: Intel(R) Core(TM) i5-1038NG7 CPU @ 2.00GHz
Thread count: 4 physical cores, 8 logical processors, using up to 8 threads

Optimize a model with 401 rows, 96489 columns and 480975 nonzeros
Model fingerprint: 0xff931059
Coefficient statistics:
  Matrix range     [1e+00, 1e+00]
  Objective range  [1e+00, 2e+04]
  Bounds range     [1e+00, 1e+00]
  RHS range        [1e+00, 1e+00]
Presolve removed 14 rows and 14 columns
Presolve time: 0.22s
Presolved: 387 rows, 96475 columns, 480933 nonzeros

Concurrent LP optimizer: dual simplex and barrier
Showing barrier log only...

Ordering time: 0.00s

Barrier statistics:
 AA' NZ     : 3.815e+04
 Factor NZ  : 6.630e+04 (roughly 40 MB of memory)
 Factor Ops : 1.437e+07 (less than 1 second per iteration)
 Threads    : 3

                  Objective                Residual
Iter       Primal          Dual         Primal    Dual     Compl     Time
   0   4.95414905e+07  3.70680000e+04  8.82e+02 0.00e+00  1.50e+00     0s
   1   7.44716439e+06 -1.77424441e+05  1.28e+02 7.11e-14  2.27e-01     0s
   2   1.07004897e+06 -4.74088873e+04  1.27e+01 5.68e-14  2.88e-02     0s
   3   5.79909142e+05  4.27694198e+04  4.01e+00 7.11e-14  1.28e-02     0s
   4   4.16448683e+05  1.40926616e+05  1.18e+00 7.46e-14  6.04e-03     0s
   5   3.54525334e+05  2.54353128e+05  2.74e-01 1.21e-13  2.03e-03     0s
   6   3.29130299e+05  2.72817222e+05  7.17e-02 8.17e-14  1.13e-03     0s
   7   3.19610678e+05  2.74200526e+05  3.75e-02 8.53e-14  9.16e-04     0s
   8   3.10457805e+05  2.83535722e+05  1.70e-02 6.75e-14  5.44e-04     1s
   9   3.03668723e+05  2.89121321e+05  7.31e-03 8.53e-14  2.95e-04     1s
  10   3.00008213e+05  2.91712080e+05  3.20e-03 6.75e-14  1.68e-04     1s
  11   2.96541557e+05  2.92820432e+05  9.58e-04 7.11e-14  7.55e-05     1s
  12   2.95742464e+05  2.93521826e+05  5.36e-04 7.82e-14  4.51e-05     1s
  13   2.94756124e+05  2.94053219e+05  1.43e-04 6.39e-14  1.43e-05     1s
  14   2.94333813e+05  2.94194617e+05  1.64e-05 7.11e-14  2.83e-06     1s
  15   2.94269480e+05  2.94213760e+05  4.73e-06 7.11e-14  1.13e-06     1s
  16   2.94248228e+05  2.94231498e+05  1.38e-06 8.53e-14  3.40e-07     1s
  17   2.94242936e+05  2.94234659e+05  6.06e-07 1.14e-13  1.68e-07     1s
  18   2.94239243e+05  2.94236944e+05  9.14e-08 1.14e-13  4.67e-08     1s
  19   2.94239159e+05  2.94237612e+05  8.13e-08 1.56e-13  3.15e-08     1s
  20   2.94239123e+05  2.94237864e+05  7.57e-08 1.28e-13  2.56e-08     1s
  21   2.94238923e+05  2.94238436e+05  5.13e-08 1.71e-13  9.96e-09     1s
  22   2.94238542e+05  2.94238487e+05  5.64e-09 1.56e-13  1.14e-09     1s
  23   2.94238525e+05  2.94238525e+05  2.63e-10 1.42e-13  5.38e-12     1s

Barrier solved model in 23 iterations and 0.87 seconds (0.64 work units)
Optimal objective 2.94238525e+05

Crossover log...

     248 DPushes remaining with DInf 2.4703722e-05                 1s
       0 DPushes remaining with DInf 0.0000000e+00                 1s

      20 PPushes remaining with PInf 0.0000000e+00                 1s
       0 PPushes remaining with PInf 0.0000000e+00                 1s

  Push phase complete: Pinf 0.0000000e+00, Dinf 1.6408208e-11      1s


Solved with barrier
Iteration    Objective       Primal Inf.    Dual Inf.      Time
     269    2.9423853e+05   0.000000e+00   0.000000e+00      1s

Solved in 269 iterations and 0.97 seconds (0.70 work units)
Optimal objective  2.942385250e+05

User-callback calls 526, time in user-callback 0.00 sec

=========================

OUTPUT STATISTICS
Relaxed: true
Time since start: 183.49478578567505
SetUpTime: 153.81235885620117
Objective value LB: 294238.525
Objective value UB: 344076.0
Solving time LB: 2.877173900604248
Solving time UB: 12.624874114990234
Gap: 0.1448443803113265
